benchmarks_vrp/CMT2/no_cluster/CMT2_9.vrp
NAME: CMT2_9
TYPE: CVRP
COMMENT: 835.26 - Cluster Nr.9
DIMENSION: 6
CAPACITY: 140
EDGE_WEIGHT_TYPE: EUC_2D
NODE_COORD_TYPE: TWOD_COORDS
NODE_COORD_SECTION: 
5 40 40
6 50 70
3 40 60
1 57 72
2 47 66
4 40 66
DEPOT_SECTION: 
5
-1
DEMAND_SECTION: 
5 0
2 24
1 37
3 21
6 9
4 26
EOF
