benchmarks_vrp/CMT2/no_cluster/CMT2_9.tour
NAME: CMT2_9 solution
TYPE: TOUR
TOUR_SECTION:
5 1 6 2 4 3 -1
-1
EOF